p cnf 71 229
3 -1 0
3 -2 0
1 2 -3 0
5 3 0
5 4 0
-3 -4 -5 0
-8 6 0
-8 -7 0
-6 7 8 0
-9 -5 0
-9 -8 0
5 8 9 0
-12 10 0
-12 11 0
-10 -11 12 0
13 -9 0
13 -12 0
9 12 -13 0
-14 6 0
-14 -2 0
-6 2 14 0
-16 -15 0
-16 1 0
15 -1 16 0
17 1 0
17 16 0
-1 -16 -17 0
14 17 -18 0
-14 -17 -18 0
14 -17 18 0
-14 17 18 0
7 8 -19 0
-7 -8 -19 0
7 -8 19 0
-7 8 19 0
20 2 0
20 -1 0
-2 1 -20 0
4 -1 -21 0
-4 1 -21 0
4 1 21 0
-4 -1 21 0
-20 -21 -22 0
20 21 -22 0
-20 21 22 0
20 -21 22 0
23 -22 0
23 -15 0
22 15 -23 0
24 1 0
24 23 0
-1 -23 -24 0
25 26 -27 0
-25 -26 -27 0
25 -26 27 0
-25 26 27 0
-24 -27 -28 0
24 27 -28 0
-24 27 28 0
24 -27 28 0
29 -7 0
29 -28 0
7 28 -29 0
-30 19 0
-30 29 0
-19 -29 30 0
-18 30 -31 0
18 -30 -31 0
-18 -30 31 0
18 30 31 0
13 31 -32 0
-13 -31 -32 0
13 -31 32 0
-13 31 32 0
33 -26 0
33 -10 0
26 10 -33 0
15 33 -34 0
-15 -33 -34 0
15 -33 34 0
-15 33 34 0
35 -26 0
35 -26 0
26 -35 0
36 20 0
36 25 0
-20 -25 -36 0
-37 35 0
-37 -36 0
-35 36 37 0
38 -34 0
38 -37 0
34 37 -38 0
-40 -4 0
-40 39 0
4 -39 40 0
-38 40 -41 0
38 -40 -41 0
-38 -40 41 0
38 40 41 0
42 25 0
42 5 0
-25 -5 -42 0
-41 42 -43 0
41 -42 -43 0
-41 -42 43 0
41 42 43 0
44 -3 0
44 2 0
3 -2 -44 0
-11 1 -45 0
11 -1 -45 0
-11 -1 45 0
11 1 45 0
46 45 0
46 -15 0
-45 15 -46 0
-47 44 0
-47 46 0
-44 -46 47 0
-49 -20 0
-49 -48 0
20 48 49 0
-51 27 0
-51 -50 0
-27 50 51 0
-52 51 0
-52 -6 0
-51 6 52 0
-28 52 -53 0
28 -52 -53 0
-28 -52 53 0
28 52 53 0
54 3 0
54 -24 0
-3 24 -54 0
-53 -54 -55 0
53 54 -55 0
-53 54 55 0
53 -54 55 0
56 -49 0
56 -55 0
49 55 -56 0
-57 -47 0
-57 56 0
47 -56 57 0
-58 -43 0
-58 -57 0
43 57 58 0
59 32 0
59 58 0
-32 -58 -59 0
52 23 -60 0
-52 -23 -60 0
52 -23 60 0
-52 23 60 0
-5 -16 -61 0
5 16 -61 0
-5 16 61 0
5 -16 61 0
-28 -61 -62 0
28 61 -62 0
-28 61 62 0
28 -61 62 0
-63 -60 0
-63 -62 0
60 62 63 0
22 8 -64 0
-22 -8 -64 0
22 -8 64 0
-22 8 64 0
-65 -45 0
-65 -64 0
45 64 65 0
-67 65 0
-67 -66 0
-65 66 67 0
-68 6 0
-68 2 0
-6 -2 68 0
67 68 -69 0
-67 -68 -69 0
67 -68 69 0
-67 68 69 0
-70 -63 0
-70 69 0
63 -69 70 0
71 -59 0
71 70 0
59 -70 -71 0
60 61 0
-32 -20 -62 45 0
-27 -47 -66 0
15 1 18 0
4 -22 -43 36 45 -39 0
-12 -11 -51 -10 -23 -16 0
-61 45 0
-55 -38 67 0
45 -57 -1 -52 55 0
50 67 -70 -4 0
43 -51 11 0
3 -23 -68 -71 0
15 12 58 44 14 -47 0
34 -37 0
20 -53 0
47 -56 53 -55 -50 0
68 -45 -25 31 0
12 -32 60 -57 70 0
-7 43 -1 25 -32 0
-14 16 -45 56 50 0
-38 15 -50 0
-23 51 63 24 0
22 -8 60 17 -39 0
-44 11 40 45 66 62 0
35 2 -15 -5 -52 40 0
-9 50 71 56 -38 0
34 -2 -38 -5 0
-7 20 51 -1 0
19 -34 -7 12 29 0
66 -15 -40 4 -13 0
-37 -41 36 15 14 3 0
46 28 -39 -13 45 0
-5 -66 -31 -1 19 -58 0
-62 24 -31 34 41 0
10 40 -17 30 60 0
-70 19 -52 -25 0
-37 -62 0
17 70 37 -23 -1 0
71 0
